certificates/rado_a12_c128_N29.drat
11 -29 0
-29 0
9 0
-11 0
7 0
15 0
25 0
-27 0
-10 0
-5 0
-12 0
19 0
0
